
Gurobi 11.0.3 (win64) logging started Mon Sep  2 15:11:04 2024

Set parameter LogFile to value "C:\Users\ealvarezq\Desktop\B.Operation_cost\IEEE118_mod2_ByStages_nc30/openStarNet_IEEE118_mod2_ByStages_nc30.log"
Set parameter Method to value 2
Set parameter MIPFocus to value 1
Set parameter Presolve to value 2
Set parameter RINS to value 100
Set parameter MIPGap to value 0.01
Set parameter Threads to value 24
Set parameter TimeLimit to value 259200
Set parameter IterationLimit to value 760000000
Gurobi Optimizer version 11.0.3 build v11.0.3rc0 (win64 - Windows Server 2019.0 (17763.2))

CPU model: AMD Ryzen Threadripper PRO 3955WX 16-Cores, instruction set [SSE2|AVX|AVX2]
Thread count: 16 physical cores, 32 logical processors, using up to 24 threads

Optimize a model with 42633 rows, 31439 columns and 109564 nonzeros
Model fingerprint: 0xbd209488
Variable types: 31405 continuous, 34 integer (34 binary)
Coefficient statistics:
  Matrix range     [2e-03, 9e+03]
  Objective range  [1e+00, 1e+00]
  Bounds range     [1e-04, 3e+00]
  RHS range        [2e-04, 3e+00]
Presolve removed 28853 rows and 14497 columns
Presolve time: 0.20s
Presolved: 13780 rows, 16942 columns, 50361 nonzeros
Variable types: 16908 continuous, 34 integer (34 binary)
Root relaxation presolved: 13780 rows, 16942 columns, 50361 nonzeros

Root barrier log...

Ordering time: 0.01s

Barrier statistics:
 Dense cols : 34
 AA' NZ     : 6.245e+04
 Factor NZ  : 2.422e+05 (roughly 14 MB of memory)
 Factor Ops : 5.063e+06 (less than 1 second per iteration)
 Threads    : 23

                  Objective                Residual
Iter       Primal          Dual         Primal    Dual     Compl     Time
   0   8.63763213e+06 -7.96580312e+08  1.50e+01 3.37e+03  8.43e+04     0s
   1   2.01299548e+06 -3.00122279e+08  3.09e+00 8.04e-09  1.67e+04     0s
   2   6.76141896e+05 -2.29064672e+08  7.12e-01 1.68e-08  7.53e+03     1s
   3   3.89844901e+05 -3.98363548e+07  1.80e-01 2.92e-09  1.20e+03     1s
   4   2.52275541e+05 -5.49647381e+06  1.05e-02 5.24e-10  1.44e+02     1s
   5   1.49441223e+05 -1.37096245e+06  2.09e-03 1.23e-10  3.76e+01     1s
   6   7.96783858e+04 -4.20910141e+05  8.75e-04 3.46e-11  1.23e+01     1s
   7   3.06165613e+04 -1.17145129e+05  2.70e-04 1.09e-11  3.64e+00     1s
   8   8.15667078e+03 -2.22314161e+04  3.02e-05 9.15e-12  7.47e-01     1s
   9   4.97102547e+03 -7.67501022e+03  1.30e-05 9.01e-12  3.11e-01     1s
  10   3.09032817e+03 -2.18617625e+03  5.81e-06 7.28e-12  1.30e-01     1s
  11   2.32017478e+03 -5.74531161e+02  3.33e-06 5.05e-12  7.12e-02     1s
  12   1.73693226e+03  3.26388459e+02  1.60e-06 6.62e-12  3.47e-02     1s
  13   1.50277306e+03  8.05337921e+02  9.60e-07 6.42e-12  1.72e-02     1s
  14   1.31313454e+03  9.64293284e+02  4.69e-07 1.36e-11  8.58e-03     1s
  15   1.22726903e+03  1.02910053e+03  2.55e-07 5.43e-12  4.87e-03     1s
  16   1.17641817e+03  1.06776115e+03  1.30e-07 8.80e-12  2.67e-03     1s
  17   1.15261372e+03  1.08486550e+03  7.28e-08 5.12e-12  1.67e-03     1s
  18   1.14085972e+03  1.10454305e+03  4.54e-08 8.30e-12  8.93e-04     1s
  19   1.12663484e+03  1.11204216e+03  1.18e-08 1.11e-11  3.59e-04     1s
  20   1.12391803e+03  1.11634198e+03  5.75e-09 7.31e-12  1.86e-04     1s
  21   1.12189912e+03  1.12068445e+03  1.37e-09 1.02e-11  2.99e-05     1s
  22   1.12126648e+03  1.12113409e+03  7.56e-11 9.56e-12  3.26e-06     1s
  23   1.12123389e+03  1.12119160e+03  1.47e-09 1.06e-11  1.04e-06     1s
  24   1.12122044e+03  1.12121203e+03  5.29e-10 8.96e-12  2.07e-07     1s
  25   1.12121783e+03  1.12121648e+03  4.42e-10 5.43e-12  3.31e-08     1s
  26   1.12121736e+03  1.12121735e+03  3.32e-09 9.34e-12  3.30e-10     1s

Barrier solved model in 26 iterations and 1.06 seconds (0.38 work units)
Optimal objective 1.12121736e+03


Root relaxation: objective 1.121217e+03, 1074 iterations, 0.96 seconds (0.29 work units)

    Nodes    |    Current Node    |     Objective Bounds      |     Work
 Expl Unexpl |  Obj  Depth IntInf | Incumbent    BestBd   Gap | It/Node Time

     0     0 1121.21736    0   24          - 1121.21736      -     -    1s
H    0     0                    9075.3347396 1121.21736  87.6%     -    1s
H    0     0                    1646.0991218 1121.21736  31.9%     -    2s
     0     0 1151.94990    0   23 1646.09912 1151.94990  30.0%     -    2s
H    0     0                    1428.3961144 1151.94990  19.4%     -    2s
     0     0 1152.13194    0   23 1428.39611 1152.13194  19.3%     -    2s
     0     0 1154.55734    0   24 1428.39611 1154.55734  19.2%     -    3s
     0     0 1154.56081    0   24 1428.39611 1154.56081  19.2%     -    3s
     0     0 1158.11371    0   22 1428.39611 1158.11371  18.9%     -    3s
     0     0 1158.11371    0   22 1428.39611 1158.11371  18.9%     -    3s
     0     0 1158.32604    0   22 1428.39611 1158.32604  18.9%     -    4s
     0     0 1158.36920    0   22 1428.39611 1158.36920  18.9%     -    4s
     0     0 1158.36987    0   22 1428.39611 1158.36987  18.9%     -    4s
     0     0 1158.41075    0   22 1428.39611 1158.41075  18.9%     -    4s
H    0     0                    1328.7961023 1158.41075  12.8%     -   56s
     0     2 1158.41075    0   22 1328.79610 1158.41075  12.8%     -   57s
    29    24 1260.26833    5   17 1328.79610 1220.07550  8.18%   398   61s
   201    60     cutoff   10      1328.79610 1249.34883  5.98%   231   65s
   299    63 1292.38892    9   13 1328.79610 1257.86149  5.34%   211   78s
   473    50 1317.12753   11   10 1328.79610 1257.86149  5.34%   171   80s

Cutting planes:
  Gomory: 1
  Implied bound: 88
  MIR: 206
  Flow cover: 2
  RLT: 1

Explored 790 nodes (129891 simplex iterations) in 84.84 seconds (69.32 work units)
Thread count was 24 (of 32 available processors)

Solution count 4: 1328.8 1428.4 1646.1 9075.33 

Optimal solution found (tolerance 1.00e-02)
Best objective 1.328796102255e+03, best bound 1.324982872848e+03, gap 0.2870%

Gurobi 11.0.3 (win64) logging started Mon Sep  2 15:12:39 2024

Set parameter LogFile to value "C:\Users\ealvarezq\Desktop\B.Operation_cost\IEEE118_mod2_ByStages_nc30/openStarNet_IEEE118_mod2_ByStages_nc30.log"
Set parameter Method to value 2
Set parameter MIPFocus to value 1
Set parameter Presolve to value 2
Set parameter RINS to value 100
Set parameter MIPGap to value 0.01
Set parameter Threads to value 24
Set parameter TimeLimit to value 259200
Set parameter IterationLimit to value 760000000
Gurobi Optimizer version 11.0.3 build v11.0.3rc0 (win64 - Windows Server 2019.0 (17763.2))

CPU model: AMD Ryzen Threadripper PRO 3955WX 16-Cores, instruction set [SSE2|AVX|AVX2]
Thread count: 16 physical cores, 32 logical processors, using up to 24 threads

Optimize a model with 42633 rows, 31405 columns and 105450 nonzeros
Model fingerprint: 0x2630fe91
Coefficient statistics:
  Matrix range     [2e-03, 9e+03]
  Objective range  [1e+00, 1e+00]
  Bounds range     [1e-04, 3e+00]
  RHS range        [2e-04, 3e+02]
Presolve removed 31801 rows and 13778 columns
Presolve time: 0.11s
Presolved: 10832 rows, 17711 columns, 42674 nonzeros

Ordering time: 0.01s

Barrier statistics:
 AA' NZ     : 3.595e+04
 Factor NZ  : 1.420e+05 (roughly 13 MB of memory)
 Factor Ops : 2.054e+06 (less than 1 second per iteration)
 Threads    : 24

                  Objective                Residual
Iter       Primal          Dual         Primal    Dual     Compl     Time
   0   1.47068823e+07 -3.80539495e+08  8.12e+01 1.90e+02  3.74e+04     0s
   1   2.08098948e+06 -1.08748778e+08  1.01e+01 3.64e-12  5.42e+03     0s
   2   5.78248473e+05 -2.09492678e+07  1.90e+00 4.09e-12  8.69e+02     0s
   3   1.96443660e+05 -3.21407369e+06  5.66e-02 2.73e-12  9.26e+01     1s
   4   8.66953825e+04 -5.44941020e+05  4.52e-03 2.73e-12  1.64e+01     1s
   5   3.91311056e+04 -1.71073026e+05  1.61e-03 9.09e-13  5.44e+00     1s
   6   1.49912468e+04 -5.52472399e+04  4.83e-04 1.07e-12  1.81e+00     1s
   7   7.23498355e+03 -1.51126006e+04  1.53e-04 6.03e-13  5.77e-01     1s
   8   4.86302495e+03 -3.99061251e+03  7.86e-05 6.86e-13  2.29e-01     1s
   9   3.32159239e+03 -1.77190158e+03  4.18e-05 8.18e-13  1.32e-01     1s
  10   2.33036316e+03  2.71951222e+02  1.93e-05 7.14e-13  5.32e-02     1s
  11   1.86661358e+03  7.02275043e+02  9.67e-06 1.22e-12  3.01e-02     1s
  12   1.66675094e+03  9.79469565e+02  5.90e-06 6.87e-13  1.77e-02     1s
  13   1.55989319e+03  1.13472637e+03  3.97e-06 7.06e-13  1.10e-02     1s
  14   1.45036654e+03  1.21467832e+03  2.03e-06 8.10e-13  6.09e-03     1s
  15   1.37704495e+03  1.26572094e+03  7.68e-07 6.53e-13  2.87e-03     1s
  16   1.35539120e+03  1.29540626e+03  4.13e-07 8.10e-13  1.55e-03     1s
  17   1.34205735e+03  1.31768547e+03  2.04e-07 8.39e-13  6.29e-04     1s
  18   1.33367962e+03  1.32699717e+03  7.27e-08 9.68e-13  1.73e-04     1s
  19   1.33040009e+03  1.32814517e+03  2.32e-08 7.01e-13  5.82e-05     1s
  20   1.32881728e+03  1.32874745e+03  3.57e-10 1.29e-12  1.80e-06     1s
  21   1.32879637e+03  1.32879551e+03  1.86e-10 1.13e-12  2.23e-08     1s
  22   1.32879611e+03  1.32879609e+03  1.82e-10 1.85e-12  3.36e-10     1s
  23   1.32879610e+03  1.32879610e+03  6.84e-11 9.24e-13  6.80e-15     1s

Barrier solved model in 23 iterations and 0.75 seconds (0.18 work units)
Optimal objective 1.32879610e+03

Crossover log...

    3119 DPushes remaining with DInf 0.0000000e+00                 1s
       0 DPushes remaining with DInf 0.0000000e+00                 1s

      94 PPushes remaining with PInf 0.0000000e+00                 1s
       0 PPushes remaining with PInf 0.0000000e+00                 1s

  Push phase complete: Pinf 0.0000000e+00, Dinf 2.7450661e-12      1s

Iteration    Objective       Primal Inf.    Dual Inf.      Time
     976    1.3287961e+03   0.000000e+00   0.000000e+00      1s

Solved in 976 iterations and 0.84 seconds (0.20 work units)
Optimal objective  1.328796102e+03
